c Reduced graph for GEOM30b generated by Cyril Grelier
p edge 26 72
e 1 7
e 1 8
e 1 13
e 1 18
e 1 20
e 1 24
e 1 25
e 2 4
e 2 6
e 2 14
e 2 16
e 2 17
e 2 22
e 3 10
e 3 15
e 3 16
e 3 19
e 3 22
e 3 23
e 4 6
e 4 9
e 4 14
e 4 17
e 5 7
e 5 8
e 5 9
e 5 14
e 5 24
e 6 11
e 6 17
e 6 22
e 7 8
e 7 14
e 7 24
e 8 24
e 8 25
e 9 14
e 9 24
e 10 15
e 10 19
e 10 23
e 11 21
e 11 26
e 12 15
e 12 18
e 12 20
e 13 20
e 13 25
e 14 17
e 14 24
e 15 16
e 15 18
e 15 22
e 15 23
e 16 17
e 16 18
e 16 22
e 16 23
e 17 22
e 18 20
e 18 25
e 19 21
e 19 22
e 19 23
e 19 26
e 20 25
e 21 22
e 21 23
e 21 26
e 22 23
e 22 26
e 23 26
